NAME: berlin52-16-0
TYPE: TSP
COMMENT: min_cost = 3871.01
DIMENSION: 16
EDGE_WEIGHT_TYPE: EUC_2D
NODE_COORD_SECTION
1 700 500
2 1250 400
3 700 580
4 975 580
5 1340 725
6 685 610
7 555 815
8 475 960
9 1740 245
10 300 465
11 835 625
12 605 625
13 830 610
14 345 750
15 845 680
16 830 485
EOF
